n_machines = 5;
n_resources = 10;
n_jobs = 50;
horizon = 25480;
LB = 5096;
n_jobs_per_resource = [5, 5, 5, 5, 5, 5, 5, 5, 5, 5];
duration = [33, 596, 385, 66, 407, 774, 933, 729, 818, 926, 897, 427, 476, 300, 436, 507, 193, 396, 723, 5, 373, 916, 665, 494, 631, 662, 135, 233, 6, 720, 895, 356, 879, 529, 129, 833, 608, 382, 281, 568, 28, 723, 702, 114, 251, 821, 407, 976, 173, 963]